NAME: tsp5_12
COMMENT: 5-tsp problem (Padberg/Rinaldi)
TYPE: TSP
DIMENSION: 5
EDGE_WEIGHT_TYPE : EUC_2D
NODE_COORD_SECTION
1.00 23.60 4.80
2.00 21.10 8.07
3.00 24.30 8.06
4.00 2.37 6.57
5.00 13.46 36.22
